(set-info :source |printed by MathSAT|)
(declare-fun |!{$(in_main#0)<N>}| () Int)
(declare-fun |!{$(in_main#0)<N>}.next| () Int)
(declare-fun |!{$(in_main#0)<i>}| () Int)
(declare-fun |!{$(in_main#0)<i>}.next| () Int)
(declare-fun |!{$(in_main#0)<x>}| () Int)
(declare-fun |!{$(in_main#0)<x>}.next| () Int)
(declare-fun |!{$(in_main#0)<a.1>}| () (Array Int Int))
(declare-fun |!{$(in_main#0)<a.1>}.next| () (Array Int Int))
(declare-fun |!{$(in_main#0)<b.2>}| () (Array Int Int))
(declare-fun |!{$(in_main#0)<b.2>}.next| () (Array Int Int))
(declare-fun |!{$(in_main#0)<$(in___VERIFIER_nondet_int#0)<h#<__VERIFIER_nondet_int.return>>>}| () Int)
(declare-fun |!{$(in_main#0)<$(in___VERIFIER_nondet_int#1)<h#<__VERIFIER_nondet_int.return>>>}| () Int)
(declare-fun !pc () Int)
(declare-fun !pc.next () Int)
(declare-fun |%{$(in_main#0)<x>}#1| () Int)
(declare-fun |%{$(in_main#0)<a.1>}#1| () (Array Int Int))
(declare-fun |%{$(in_main#0)<b.2>}#1| () (Array Int Int))
(define-fun .def_32 () Int (! !pc :next !pc.next))
(define-fun .def_35 () Bool (! (= .def_32 2) :init true))
(define-fun .def_160 () Bool (= .def_32 27))
(define-fun .def_143 () Bool (= !pc.next 48))
(define-fun .def_163 () Bool (and .def_143 .def_160))
(define-fun .def_8 () Int (! |!{$(in_main#0)<N>}| :next |!{$(in_main#0)<N>}.next|))
(define-fun .def_76 () Bool (= .def_8 |!{$(in_main#0)<N>}.next|))
(define-fun .def_48 () Bool (= |!{$(in_main#0)<i>}.next| 0))
(define-fun .def_155 () Bool (and .def_48 .def_76))
(define-fun .def_12 () Int (! |!{$(in_main#0)<x>}| :next |!{$(in_main#0)<x>}.next|))
(define-fun .def_80 () Bool (= .def_12 |!{$(in_main#0)<x>}.next|))
(define-fun .def_156 () Bool (and .def_80 .def_155))
(define-fun .def_14 () (Array Int Int) (! |!{$(in_main#0)<a.1>}| :next |!{$(in_main#0)<a.1>}.next|))
(define-fun .def_82 () Bool (= .def_14 |!{$(in_main#0)<a.1>}.next|))
(define-fun .def_157 () Bool (and .def_82 .def_156))
(define-fun .def_16 () (Array Int Int) (! |!{$(in_main#0)<b.2>}| :next |!{$(in_main#0)<b.2>}.next|))
(define-fun .def_84 () Bool (= .def_16 |!{$(in_main#0)<b.2>}.next|))
(define-fun .def_158 () Bool (and .def_84 .def_157))
(define-fun .def_10 () Int (! |!{$(in_main#0)<i>}| :next |!{$(in_main#0)<i>}.next|))
(define-fun .def_118 () Bool (<= .def_8 .def_10))
(define-fun .def_159 () Bool (and .def_118 .def_158))
(define-fun .def_164 () Bool (and .def_159 .def_163))
(define-fun .def_57 () Bool (= !pc.next 27))
(define-fun .def_161 () Bool (and .def_57 .def_160))
(define-fun .def_150 () (Array Int Int) (store .def_14 .def_10 |!{$(in_main#0)<$(in___VERIFIER_nondet_int#1)<h#<__VERIFIER_nondet_int.return>>>}|))
(define-fun .def_151 () Bool (= |!{$(in_main#0)<a.1>}.next| .def_150))
(define-fun .def_127 () Int (* (- 1) |!{$(in_main#0)<i>}.next|))
(define-fun .def_128 () Int (+ .def_10 .def_127))
(define-fun .def_129 () Bool (= .def_128 (- 1)))
(define-fun .def_130 () Bool (and .def_76 .def_129))
(define-fun .def_131 () Bool (and .def_80 .def_130))
(define-fun .def_152 () Bool (and .def_131 .def_151))
(define-fun .def_153 () Bool (and .def_84 .def_152))
(define-fun .def_119 () Bool (not .def_118))
(define-fun .def_154 () Bool (and .def_119 .def_153))
(define-fun .def_162 () Bool (and .def_154 .def_161))
(define-fun .def_165 () Bool (or .def_162 .def_164))
(define-fun .def_142 () Bool (= .def_32 48))
(define-fun .def_107 () Bool (= !pc.next 62))
(define-fun .def_146 () Bool (and .def_107 .def_142))
(define-fun .def_136 () Bool (= |!{$(in_main#0)<x>}.next| 0))
(define-fun .def_78 () Bool (= .def_10 |!{$(in_main#0)<i>}.next|))
(define-fun .def_87 () Bool (and .def_76 .def_78))
(define-fun .def_137 () Bool (and .def_87 .def_136))
(define-fun .def_138 () Bool (and .def_82 .def_137))
(define-fun .def_139 () Bool (and .def_84 .def_138))
(define-fun .def_140 () Bool (and .def_118 .def_139))
(define-fun .def_147 () Bool (and .def_140 .def_146))
(define-fun .def_144 () Bool (and .def_142 .def_143))
(define-fun .def_120 () Int (* (- 1) .def_10))
(define-fun .def_121 () Int (+ .def_8 .def_120))
(define-fun .def_123 () Int (+ .def_121 (- 1)))
(define-fun .def_124 () Int (select .def_14 .def_123))
(define-fun .def_125 () (Array Int Int) (store .def_16 .def_10 .def_124))
(define-fun .def_133 () Bool (= |!{$(in_main#0)<b.2>}.next| .def_125))
(define-fun .def_132 () Bool (and .def_82 .def_131))
(define-fun .def_134 () Bool (and .def_132 .def_133))
(define-fun .def_135 () Bool (and .def_119 .def_134))
(define-fun .def_145 () Bool (and .def_135 .def_144))
(define-fun .def_148 () Bool (or .def_145 .def_147))
(define-fun .def_111 () Bool (= !pc.next 0))
(define-fun .def_102 () Bool (= .def_32 62))
(define-fun .def_112 () Bool (and .def_102 .def_111))
(define-fun .def_60 () Bool (<= .def_8 .def_12))
(define-fun .def_96 () Bool (and .def_60 .def_76))
(define-fun .def_97 () Bool (and .def_78 .def_96))
(define-fun .def_98 () Bool (and .def_80 .def_97))
(define-fun .def_99 () Bool (and .def_82 .def_98))
(define-fun .def_100 () Bool (and .def_84 .def_99))
(define-fun .def_113 () Bool (and .def_100 .def_112))
(define-fun .def_108 () Bool (and .def_102 .def_107))
(define-fun .def_88 () Int (* (- 1) |!{$(in_main#0)<x>}.next|))
(define-fun .def_89 () Int (+ .def_12 .def_88))
(define-fun .def_90 () Bool (= .def_89 (- 1)))
(define-fun .def_91 () Bool (and .def_87 .def_90))
(define-fun .def_92 () Bool (and .def_82 .def_91))
(define-fun .def_93 () Bool (and .def_84 .def_92))
(define-fun .def_64 () Int (* (- 1) .def_12))
(define-fun .def_65 () Int (+ .def_8 .def_64))
(define-fun .def_67 () Int (+ .def_65 (- 1)))
(define-fun .def_68 () Int (select .def_16 .def_67))
(define-fun .def_62 () Int (select .def_14 .def_12))
(define-fun .def_69 () Bool (= .def_62 .def_68))
(define-fun .def_70 () Int (ite .def_69 1 0))
(define-fun .def_71 () Bool (= .def_70 0))
(define-fun .def_72 () Bool (not .def_71))
(define-fun .def_94 () Bool (and .def_72 .def_93))
(define-fun .def_61 () Bool (not .def_60))
(define-fun .def_95 () Bool (and .def_61 .def_94))
(define-fun .def_109 () Bool (and .def_95 .def_108))
(define-fun .def_104 () Bool (= !pc.next 82))
(define-fun .def_105 () Bool (and .def_102 .def_104))
(define-fun .def_77 () Bool (and .def_71 .def_76))
(define-fun .def_79 () Bool (and .def_77 .def_78))
(define-fun .def_81 () Bool (and .def_79 .def_80))
(define-fun .def_83 () Bool (and .def_81 .def_82))
(define-fun .def_85 () Bool (and .def_83 .def_84))
(define-fun .def_86 () Bool (and .def_61 .def_85))
(define-fun .def_106 () Bool (and .def_86 .def_105))
(define-fun .def_110 () Bool (or .def_106 .def_109))
(define-fun .def_114 () Bool (or .def_110 .def_113))
(define-fun .def_58 () Bool (and .def_35 .def_57))
(define-fun .def_54 () Bool (= |!{$(in_main#0)<b.2>}.next| |%{$(in_main#0)<b.2>}#1|))
(define-fun .def_52 () Bool (= |!{$(in_main#0)<a.1>}.next| |%{$(in_main#0)<a.1>}#1|))
(define-fun .def_50 () Bool (= |!{$(in_main#0)<x>}.next| |%{$(in_main#0)<x>}#1|))
(define-fun .def_47 () Bool (= |!{$(in_main#0)<N>}.next| |!{$(in_main#0)<$(in___VERIFIER_nondet_int#0)<h#<__VERIFIER_nondet_int.return>>>}|))
(define-fun .def_49 () Bool (and .def_47 .def_48))
(define-fun .def_51 () Bool (and .def_49 .def_50))
(define-fun .def_53 () Bool (and .def_51 .def_52))
(define-fun .def_55 () Bool (and .def_53 .def_54))
(define-fun .def_59 () Bool (and .def_55 .def_58))
(define-fun .def_115 () Bool (or .def_59 .def_114))
(define-fun .def_149 () Bool (or .def_115 .def_148))
(define-fun .def_166 () Bool (! (or .def_149 .def_165) :trans true))
(define-fun .def_116 () Bool (= .def_32 82))
(define-fun .def_167 () Bool (! (not .def_116) :invar-property 0 :invar-property-name ||))
(assert true)
